n = 5;
K = 3;
L = 30;
capacity = array1d(0..2,[5, 5, 5]);
max_r_time = array1d(0..2,[300, 300, 300]);
load = array1d(0..11,[0, 1, 1, 1, 1, 1, -1, -1, -1, -1, -1, 0]);
service_time = array1d(0..11,[0, 5, 5, 5, 5, 5, 5, 5, 5, 5, 5, 0]);
earliest_pickup = array1d(0..11,[0, 139, 41, 276, 180, 37, 139, 41, 276, 180, 37, 0]);
latest_dropoff = array1d(0..11,[1440, 200, 105, 337, 243, 99, 200, 105, 337, 243, 99, 1440]);
t_time = array2d(0..11,0..11,[0, 2, 3, 1, 1, 1, 3, 2, 1, 2, 1, 0, 2, 0, 1, 2, 3, 2, 1, 3, 3, 1, 3, 2, 3, 1, 0, 3, 4, 2, 1, 4, 4, 1, 4, 3, 1, 2, 3, 0, 1, 2, 3, 1, 1, 2, 1, 1, 1, 3, 4, 1, 0, 2, 4, 1, 1, 3, 0, 1, 1, 2, 2, 2, 2, 0, 2, 3, 2, 1, 2, 1, 3, 1, 1, 3, 4, 2, 0, 4, 4, 1, 4, 3, 2, 3, 4, 1, 1, 3, 4, 0, 2, 3, 1, 2, 1, 3, 4, 1, 1, 2, 4, 2, 0, 3, 1, 1, 2, 1, 1, 2, 3, 1, 1, 3, 3, 0, 3, 2, 1, 3, 4, 1, 0, 2, 4, 1, 1, 3, 0, 1, 0, 2, 3, 1, 1, 1, 3, 2, 1, 2, 1, 0]);
t_cost = array3d(0..11,0..11,0..2,[0, 121, 182, 60, 60, 60, 182, 121, 60, 121, 60, 0, 121, 0, 60, 121, 182, 121, 60, 182, 182, 60, 182, 121, 182, 60, 0, 182, 243, 121, 60, 243, 243, 60, 243, 182, 60, 121, 182, 0, 60, 121, 182, 60, 60, 121, 60, 60, 60, 182, 243, 60, 0, 121, 243, 60, 60, 182, 0, 60, 60, 121, 121, 121, 121, 0, 121, 182, 121, 60, 121, 60, 182, 60, 60, 182, 243, 121, 0, 243, 243, 60, 243, 182, 121, 182, 243, 60, 60, 182, 243, 0, 121, 182, 60, 121, 60, 182, 243, 60, 60, 121, 243, 121, 0, 182, 60, 60, 121, 60, 60, 121, 182, 60, 60, 182, 182, 0, 182, 121, 60, 182, 243, 60, 0, 121, 243, 60, 60, 182, 0, 60, 0, 121, 182, 60, 60, 60, 182, 121, 60, 121, 60, 0, 0, 121, 182, 60, 60, 60, 182, 121, 60, 121, 60, 0, 121, 0, 60, 121, 182, 121, 60, 182, 182, 60, 182, 121, 182, 60, 0, 182, 243, 121, 60, 243, 243, 60, 243, 182, 60, 121, 182, 0, 60, 121, 182, 60, 60, 121, 60, 60, 60, 182, 243, 60, 0, 121, 243, 60, 60, 182, 0, 60, 60, 121, 121, 121, 121, 0, 121, 182, 121, 60, 121, 60, 182, 60, 60, 182, 243, 121, 0, 243, 243, 60, 243, 182, 121, 182, 243, 60, 60, 182, 243, 0, 121, 182, 60, 121, 60, 182, 243, 60, 60, 121, 243, 121, 0, 182, 60, 60, 121, 60, 60, 121, 182, 60, 60, 182, 182, 0, 182, 121, 60, 182, 243, 60, 0, 121, 243, 60, 60, 182, 0, 60, 0, 121, 182, 60, 60, 60, 182, 121, 60, 121, 60, 0, 0, 121, 182, 60, 60, 60, 182, 121, 60, 121, 60, 0, 121, 0, 60, 121, 182, 121, 60, 182, 182, 60, 182, 121, 182, 60, 0, 182, 243, 121, 60, 243, 243, 60, 243, 182, 60, 121, 182, 0, 60, 121, 182, 60, 60, 121, 60, 60, 60, 182, 243, 60, 0, 121, 243, 60, 60, 182, 0, 60, 60, 121, 121, 121, 121, 0, 121, 182, 121, 60, 121, 60, 182, 60, 60, 182, 243, 121, 0, 243, 243, 60, 243, 182, 121, 182, 243, 60, 60, 182, 243, 0, 121, 182, 60, 121, 60, 182, 243, 60, 60, 121, 243, 121, 0, 182, 60, 60, 121, 60, 60, 121, 182, 60, 60, 182, 182, 0, 182, 121, 60, 182, 243, 60, 0, 121, 243, 60, 60, 182, 0, 60, 0, 121, 182, 60, 60, 60, 182, 121, 60, 121, 60, 0]);
t_emission = array3d(0..2,0..11,0..11,[0, 276, 414, 138, 138, 138, 414, 276, 138, 276, 138, 0, 276, 0, 138, 276, 414, 276, 138, 414, 414, 138, 414, 276, 414, 138, 0, 414, 552, 276, 138, 552, 552, 138, 552, 414, 138, 276, 414, 0, 138, 276, 414, 138, 138, 276, 138, 138, 138, 414, 552, 138, 0, 276, 552, 138, 138, 414, 0, 138, 138, 276, 276, 276, 276, 0, 276, 414, 276, 138, 276, 138, 414, 138, 138, 414, 552, 276, 0, 552, 552, 138, 552, 414, 276, 414, 552, 138, 138, 414, 552, 0, 276, 414, 138, 276, 138, 414, 552, 138, 138, 276, 552, 276, 0, 414, 138, 138, 276, 138, 138, 276, 414, 138, 138, 414, 414, 0, 414, 276, 138, 414, 552, 138, 0, 276, 552, 138, 138, 414, 0, 138, 0, 276, 414, 138, 138, 138, 414, 276, 138, 276, 138, 0, 0, 276, 414, 138, 138, 138, 414, 276, 138, 276, 138, 0, 276, 0, 138, 276, 414, 276, 138, 414, 414, 138, 414, 276, 414, 138, 0, 414, 552, 276, 138, 552, 552, 138, 552, 414, 138, 276, 414, 0, 138, 276, 414, 138, 138, 276, 138, 138, 138, 414, 552, 138, 0, 276, 552, 138, 138, 414, 0, 138, 138, 276, 276, 276, 276, 0, 276, 414, 276, 138, 276, 138, 414, 138, 138, 414, 552, 276, 0, 552, 552, 138, 552, 414, 276, 414, 552, 138, 138, 414, 552, 0, 276, 414, 138, 276, 138, 414, 552, 138, 138, 276, 552, 276, 0, 414, 138, 138, 276, 138, 138, 276, 414, 138, 138, 414, 414, 0, 414, 276, 138, 414, 552, 138, 0, 276, 552, 138, 138, 414, 0, 138, 0, 276, 414, 138, 138, 138, 414, 276, 138, 276, 138, 0, 0, 276, 414, 138, 138, 138, 414, 276, 138, 276, 138, 0, 276, 0, 138, 276, 414, 276, 138, 414, 414, 138, 414, 276, 414, 138, 0, 414, 552, 276, 138, 552, 552, 138, 552, 414, 138, 276, 414, 0, 138, 276, 414, 138, 138, 276, 138, 138, 138, 414, 552, 138, 0, 276, 552, 138, 138, 414, 0, 138, 138, 276, 276, 276, 276, 0, 276, 414, 276, 138, 276, 138, 414, 138, 138, 414, 552, 276, 0, 552, 552, 138, 552, 414, 276, 414, 552, 138, 138, 414, 552, 0, 276, 414, 138, 276, 138, 414, 552, 138, 138, 276, 552, 276, 0, 414, 138, 138, 276, 138, 138, 276, 414, 138, 138, 414, 414, 0, 414, 276, 138, 414, 552, 138, 0, 276, 552, 138, 138, 414, 0, 138, 0, 276, 414, 138, 138, 138, 414, 276, 138, 276, 138, 0]);
